Geographic Exponential Decay
80 282 60 221 261 254 286 41 278 180 74 213 76 174 89 178 245 23 212 284 72 299 159 252 133 109 217 238 257 33 272 94 194 73 57 52 300 166 30 149 251 19 24 197 301 240 275 167 265 58 92 247 139 110 259 108 291 80 50 47 147 215 285 270 200 169 40 55 182 313 253 191 103 241 7 49 9 127 70 12 244
p edge 320 1322
e 0 236 1.0
e 1 160 1.0
e 2 282 59.0
e 2 20 3.0
e 2 210 10.0
e 3 261 22.0
e 3 29 44.0
e 3 72 23.0
e 3 4 45.0
e 3 100 35.0
e 3 180 42.0
e 3 67 2.0
e 3 291 33.0
e 3 273 33.0
e 4 272 79.0
e 5 204 1.0
e 6 265 84.0
e 7 97 61.0
e 7 173 94.0
e 7 52 90.0
e 7 274 61.0
e 7 185 87.0
e 7 305 60.0
e 7 301 66.0
e 7 270 48.0
e 7 292 15.0
e 7 167 1.0
e 7 219 41.0
e 7 117 98.0
e 7 238 24.0
e 7 99 85.0
e 7 241 20.0
e 7 198 38.0
e 7 169 94.0
e 8 274 7.0
e 8 315 22.0
e 8 222 24.0
e 8 42 7.0
e 8 237 16.0
e 9 98 3.0
e 9 207 9.0
e 9 186 13.0
e 9 5 41.0
e 9 215 73.0
e 9 200 94.0
e 9 148 4.0
e 9 222 84.0
e 9 125 18.0
e 9 48 16.0
e 9 212 62.0
e 9 140 49.0
e 9 40 50.0
e 9 117 28.0
e 9 0 11.0
e 9 38 27.0
e 9 168 53.0
e 10 66 1.0
e 11 47 48.0
e 12 126 44.0
e 12 111 100.0
e 12 109 33.0
e 12 258 68.0
e 12 284 63.0
e 12 118 34.0
e 12 96 41.0
e 12 58 6.0
e 12 270 4.0
e 12 80 73.0
e 12 160 49.0
e 12 248 16.0
e 12 81 81.0
e 12 177 56.0
e 12 18 98.0
e 12 23 5.0
e 12 161 16.0
e 13 119 4.0
e 14 76 73.0
e 15 165 11.0
e 15 30 18.0
e 15 307 12.0
e 16 68 6.0
e 16 39 2.0
e 17 51 8.0
e 17 138 20.0
e 17 182 58.0
e 17 137 23.0
e 17 38 12.0
e 18 27 22.0
e 18 92 2.0
e 18 174 49.0
e 18 19 39.0
e 19 316 45.0
e 19 162 7.0
e 19 181 41.0
e 19 311 7.0
e 19 178 99.0
e 19 123 7.0
e 19 261 86.0
e 19 285 35.0
e 19 13 59.0
e 19 262 81.0
e 19 6 34.0
e 19 56 66.0
e 19 110 44.0
e 19 32 96.0
e 19 203 30.0
e 19 225 52.0
e 21 312 18.0
e 21 303 4.0
e 22 171 7.0
e 22 84 2.0
e 22 170 2.0
e 23 39 36.0
e 23 104 58.0
e 23 162 19.0
e 23 190 96.0
e 23 230 11.0
e 23 215 16.0
e 23 257 67.0
e 23 33 91.0
e 23 279 46.0
e 23 292 40.0
e 23 112 74.0
e 23 61 31.0
e 23 94 47.0
e 23 19 90.0
e 23 193 46.0
e 23 49 88.0
e 24 305 26.0
e 24 112 22.0
e 24 106 75.0
e 24 4 3.0
e 24 100 100.0
e 24 85 74.0
e 24 114 60.0
e 24 317 92.0
e 24 79 38.0
e 24 206 20.0
e 24 254 95.0
e 24 16 1.0
e 24 124 46.0
e 24 274 16.0
e 24 115 62.0
e 24 269 64.0
e 24 279 48.0
e 25 292 22.0
e 26 106 3.0
e 27 160 4.0
e 28 110 9.0
e 28 145 6.0
e 28 221 16.0
e 29 209 5.0
e 30 223 94.0
e 30 79 15.0
e 30 49 7.0
e 30 192 92.0
e 30 4 57.0
e 30 98 40.0
e 30 279 57.0
e 30 224 80.0
e 30 261 50.0
e 30 292 44.0
e 30 252 6.0
e 30 29 14.0
e 30 225 45.0
e 30 109 52.0
e 30 290 42.0
e 30 239 29.0
e 31 8 1.0
e 32 271 5.0
e 33 114 68.0
e 33 220 77.0
e 33 63 40.0
e 33 97 74.0
e 33 4 28.0
e 33 131 60.0
e 33 251 42.0
e 33 67 68.0
e 33 38 99.0
e 33 267 3.0
e 33 303 39.0
e 33 302 18.0
e 33 101 31.0
e 33 36 36.0
e 33 134 69.0
e 33 54 69.0
e 34 170 1.0
e 35 294 2.0
e 37 148 2.0
e 40 140 88.0
e 40 13 43.0
e 40 232 42.0
e 40 278 41.0
e 40 80 88.0
e 40 305 93.0
e 40 274 53.0
e 40 175 54.0
e 40 72 68.0
e 40 141 73.0
e 40 288 78.0
e 40 100 15.0
e 40 14 51.0
e 40 77 27.0
e 40 280 3.0
e 40 34 1.0
e 41 95 49.0
e 41 184 5.0
e 41 243 27.0
e 41 105 50.0
e 41 106 83.0
e 41 24 70.0
e 41 142 19.0
e 41 31 94.0
e 41 318 49.0
e 41 235 100.0
e 41 304 25.0
e 41 50 99.0
e 41 13 7.0
e 41 133 24.0
e 41 147 46.0
e 41 102 83.0
e 41 129 92.0
e 43 306 2.0
e 44 5 1.0
e 45 281 11.0
e 45 139 17.0
e 45 213 27.0
e 46 49 71.0
e 47 221 75.0
e 47 118 78.0
e 47 293 58.0
e 47 279 84.0
e 47 278 49.0
e 47 80 67.0
e 47 275 48.0
e 47 69 29.0
e 47 115 16.0
e 47 61 86.0
e 47 249 64.0
e 47 12 90.0
e 47 280 36.0
e 47 257 97.0
e 47 229 9.0
e 47 133 44.0
e 49 76 54.0
e 49 269 16.0
e 49 210 73.0
e 49 29 40.0
e 49 107 51.0
e 49 291 26.0
e 49 101 20.0
e 49 26 20.0
e 49 229 46.0
e 49 67 15.0
e 49 166 81.0
e 49 226 63.0
e 49 206 61.0
e 49 19 98.0
e 50 270 19.0
e 50 305 70.0
e 50 311 89.0
e 50 48 46.0
e 50 165 66.0
e 50 135 80.0
e 50 115 92.0
e 50 19 89.0
e 50 244 82.0
e 50 306 23.0
e 50 111 81.0
e 50 101 99.0
e 50 44 43.0
e 50 80 96.0
e 50 160 84.0
e 50 182 45.0
e 51 177 3.0
e 52 136 30.0
e 52 63 32.0
e 52 287 16.0
e 52 109 92.0
e 52 190 82.0
e 52 251 48.0
e 52 147 13.0
e 52 171 25.0
e 52 86 99.0
e 52 9 13.0
e 52 238 47.0
e 52 137 7.0
e 52 245 22.0
e 52 182 15.0
e 52 103 3.0
e 52 14 7.0
e 53 135 9.0
e 53 298 48.0
e 54 179 6.0
e 55 25 47.0
e 55 48 64.0
e 55 83 36.0
e 55 147 69.0
e 55 309 40.0
e 55 264 48.0
e 55 281 61.0
e 55 310 76.0
e 55 265 13.0
e 55 178 48.0
e 55 232 70.0
e 55 167 55.0
e 55 317 100.0
e 55 29 54.0
e 55 253 88.0
e 55 318 16.0
e 55 266 41.0
e 56 88 1.0
e 57 172 47.0
e 57 143 70.0
e 57 244 47.0
e 57 309 39.0
e 57 42 98.0
e 57 53 84.0
e 57 0 21.0
e 57 89 56.0
e 57 222 19.0
e 57 101 28.0
e 57 46 53.0
e 57 88 5.0
e 57 161 35.0
e 57 212 56.0
e 57 58 100.0
e 57 59 74.0
e 57 3 41.0
e 58 59 45.0
e 58 295 68.0
e 58 32 68.0
e 58 221 10.0
e 58 14 29.0
e 58 85 7.0
e 58 287 43.0
e 58 213 69.0
e 58 244 33.0
e 58 315 38.0
e 58 316 59.0
e 58 151 16.0
e 58 15 45.0
e 58 293 13.0
e 58 225 51.0
e 60 40 26.0
e 60 41 34.0
e 60 65 75.0
e 60 70 6.0
e 60 281 54.0
e 60 264 95.0
e 60 77 82.0
e 60 138 89.0
e 60 23 100.0
e 60 282 58.0
e 60 245 86.0
e 60 317 44.0
e 60 90 57.0
e 60 11 96.0
e 60 68 89.0
e 60 235 9.0
e 60 195 64.0
e 62 278 88.0
e 62 290 11.0
e 62 265 71.0
e 64 186 1.0
e 65 88 12.0
e 65 142 3.0
e 69 75 1.0
e 70 119 74.0
e 70 20 60.0
e 70 75 76.0
e 70 217 53.0
e 70 5 84.0
e 70 252 63.0
e 70 63 15.0
e 70 234 47.0
e 70 89 19.0
e 70 287 29.0
e 70 219 4.0
e 70 180 69.0
e 70 30 82.0
e 70 34 43.0
e 70 7 25.0
e 70 205 12.0
e 71 297 10.0
e 72 189 47.0
e 72 237 38.0
e 72 211 50.0
e 72 78 31.0
e 72 188 82.0
e 72 118 82.0
e 72 86 90.0
e 72 168 31.0
e 72 132 97.0
e 72 222 84.0
e 72 98 93.0
e 72 131 41.0
e 72 195 7.0
e 72 121 3.0
e 72 183 7.0
e 73 109 29.0
e 73 106 46.0
e 73 249 65.0
e 73 311 74.0
e 73 80 77.0
e 73 232 77.0
e 73 129 30.0
e 73 237 96.0
e 73 153 14.0
e 73 279 53.0
e 73 107 27.0
e 73 293 62.0
e 73 7 17.0
e 73 159 36.0
e 73 50 75.0
e 73 130 26.0
e 73 176 78.0
e 74 131 97.0
e 74 87 48.0
e 74 89 59.0
e 74 177 23.0
e 74 114 84.0
e 74 316 19.0
e 74 156 21.0
e 74 8 61.0
e 74 249 60.0
e 74 104 42.0
e 74 3 29.0
e 74 48 50.0
e 74 315 76.0
e 74 105 8.0
e 74 287 32.0
e 74 165 68.0
e 74 6 27.0
e 76 284 24.0
e 76 309 6.0
e 76 192 57.0
e 76 124 24.0
e 76 276 5.0
e 76 150 41.0
e 76 72 14.0
e 76 314 30.0
e 76 82 1.0
e 76 55 11.0
e 76 17 94.0
e 76 277 78.0
e 76 290 21.0
e 76 306 12.0
e 76 300 44.0
e 80 125 13.0
e 80 90 27.0
e 80 44 44.0
e 80 285 30.0
e 80 118 30.0
e 80 143 37.0
e 80 169 57.0
e 80 258 65.0
e 80 113 48.0
e 80 54 86.0
e 80 259 40.0
e 80 230 11.0
e 81 204 1.0
e 83 107 5.0
e 85 276 2.0
e 87 26 3.0
e 89 263 3.0
e 89 81 22.0
e 89 90 8.0
e 89 65 56.0
e 89 241 83.0
e 89 113 82.0
e 89 272 2.0
e 89 46 76.0
e 89 143 18.0
e 89 138 49.0
e 89 206 85.0
e 89 59 7.0
e 89 212 73.0
e 89 237 42.0
e 91 303 4.0
e 92 56 93.0
e 92 240 33.0
e 92 315 12.0
e 92 295 98.0
e 92 301 59.0
e 92 52 11.0
e 92 145 66.0
e 92 261 86.0
e 92 138 65.0
e 92 31 87.0
e 92 238 74.0
e 92 201 72.0
e 92 69 78.0
e 92 73 86.0
e 92 218 81.0
e 92 241 89.0
e 93 46 2.0
e 94 224 53.0
e 94 152 44.0
e 94 24 61.0
e 94 75 2.0
e 94 141 90.0
e 94 283 84.0
e 94 140 44.0
e 94 161 55.0
e 94 215 97.0
e 94 296 37.0
e 94 72 77.0
e 94 38 61.0
e 94 203 58.0
e 94 270 28.0
e 94 95 28.0
e 94 170 92.0
e 102 107 23.0
e 102 24 92.0
e 102 275 45.0
e 102 191 22.0
e 102 105 4.0
e 102 268 20.0
e 102 99 1.0
e 102 106 24.0
e 103 277 61.0
e 103 54 81.0
e 103 129 33.0
e 103 98 96.0
e 103 25 58.0
e 103 193 17.0
e 103 165 30.0
e 103 161 78.0
e 103 251 50.0
e 103 196 93.0
e 103 298 51.0
e 103 162 44.0
e 103 209 64.0
e 103 219 8.0
e 103 268 62.0
e 103 180 2.0
e 108 64 52.0
e 108 316 75.0
e 108 135 10.0
e 108 30 2.0
e 108 166 42.0
e 108 78 88.0
e 108 233 30.0
e 108 117 81.0
e 108 132 15.0
e 108 234 27.0
e 108 109 67.0
e 108 134 31.0
e 108 31 19.0
e 108 146 71.0
e 108 147 100.0
e 108 100 57.0
e 108 85 12.0
e 109 1 12.0
e 109 26 3.0
e 109 99 36.0
e 109 189 6.0
e 109 169 29.0
e 109 235 3.0
e 109 213 44.0
e 109 310 48.0
e 109 95 75.0
e 109 162 8.0
e 109 64 86.0
e 109 293 61.0
e 110 30 92.0
e 110 32 42.0
e 110 102 56.0
e 110 42 51.0
e 110 60 58.0
e 110 11 94.0
e 110 99 80.0
e 110 53 94.0
e 110 301 23.0
e 110 41 17.0
e 110 22 42.0
e 110 183 85.0
e 110 191 18.0
e 110 65 10.0
e 110 43 84.0
e 116 70 75.0
e 120 75 2.0
e 122 74 66.0
e 127 208 99.0
e 127 306 13.0
e 127 138 76.0
e 127 6 94.0
e 127 249 61.0
e 127 246 14.0
e 127 114 32.0
e 127 118 48.0
e 127 296 52.0
e 127 148 14.0
e 127 66 48.0
e 127 231 60.0
e 127 290 18.0
e 127 176 21.0
e 127 82 73.0
e 127 126 16.0
e 127 241 63.0
e 128 288 4.0
e 128 11 1.0
e 128 245 30.0
e 133 258 11.0
e 133 125 25.0
e 133 240 62.0
e 133 300 94.0
e 133 9 77.0
e 133 87 58.0
e 133 103 41.0
e 133 56 80.0
e 133 210 46.0
e 133 307 94.0
e 133 211 11.0
e 133 266 30.0
e 133 100 39.0
e 133 264 50.0
e 133 272 29.0
e 136 8 14.0
e 139 38 32.0
e 139 307 2.0
e 139 276 27.0
e 139 234 91.0
e 139 119 8.0
e 139 71 41.0
e 139 267 62.0
e 139 128 55.0
e 139 272 61.0
e 139 194 38.0
e 139 159 45.0
e 139 101 80.0
e 139 50 13.0
e 139 177 76.0
e 139 103 51.0
e 139 255 25.0
e 144 203 49.0
e 144 286 62.0
e 144 43 18.0
e 144 16 15.0
e 144 47 24.0
e 144 41 20.0
e 144 82 39.0
e 144 80 76.0
e 144 307 26.0
e 147 110 100.0
e 147 134 52.0
e 147 266 45.0
e 147 50 94.0
e 147 307 46.0
e 147 235 16.0
e 147 53 24.0
e 147 220 70.0
e 147 294 95.0
e 147 256 88.0
e 147 295 34.0
e 147 83 60.0
e 147 148 5.0
e 149 94 82.0
e 149 33 92.0
e 149 217 52.0
e 149 186 76.0
e 149 28 81.0
e 149 170 100.0
e 149 194 99.0
e 149 95 98.0
e 149 105 56.0
e 149 93 30.0
e 149 109 24.0
e 149 275 1.0
e 149 308 97.0
e 149 110 97.0
e 149 192 12.0
e 149 69 14.0
e 149 153 94.0
e 154 209 2.0
e 155 88 3.0
e 155 261 6.0
e 157 154 1.0
e 158 208 3.0
e 159 161 98.0
e 159 163 63.0
e 159 299 38.0
e 159 57 42.0
e 159 202 57.0
e 159 293 56.0
e 159 52 36.0
e 159 154 58.0
e 159 15 68.0
e 159 209 89.0
e 159 108 25.0
e 159 228 91.0
e 159 244 70.0
e 159 273 95.0
e 159 213 71.0
e 162 7 5.0
e 164 174 57.0
e 166 199 49.0
e 166 111 47.0
e 166 57 52.0
e 166 65 12.0
e 166 115 63.0
e 166 236 25.0
e 166 253 45.0
e 166 158 42.0
e 166 42 36.0
e 166 216 5.0
e 166 119 74.0
e 166 193 89.0
e 166 188 61.0
e 166 103 31.0
e 166 43 40.0
e 167 139 41.0
e 167 90 50.0
e 167 86 72.0
e 167 111 82.0
e 167 51 92.0
e 167 240 52.0
e 167 140 61.0
e 167 266 2.0
e 167 241 33.0
e 167 308 67.0
e 167 47 94.0
e 167 91 83.0
e 167 271 60.0
e 167 195 64.0
e 167 153 5.0
e 169 210 65.0
e 169 261 6.0
e 169 236 15.0
e 169 146 24.0
e 169 292 75.0
e 169 145 72.0
e 169 232 4.0
e 169 25 70.0
e 169 277 71.0
e 169 251 9.0
e 169 215 61.0
e 169 187 68.0
e 169 173 55.0
e 169 81 4.0
e 174 94 64.0
e 174 295 52.0
e 174 37 43.0
e 174 252 27.0
e 174 304 62.0
e 174 175 87.0
e 174 3 85.0
e 174 284 72.0
e 174 27 80.0
e 174 20 94.0
e 174 97 26.0
e 174 193 36.0
e 174 44 38.0
e 174 317 42.0
e 174 88 53.0
e 178 20 72.0
e 178 271 5.0
e 178 73 81.0
e 178 105 77.0
e 178 40 92.0
e 178 259 69.0
e 178 79 27.0
e 178 152 28.0
e 178 258 35.0
e 178 141 35.0
e 178 172 49.0
e 178 253 76.0
e 178 140 70.0
e 178 9 58.0
e 178 216 25.0
e 180 267 49.0
e 180 168 99.0
e 180 21 17.0
e 180 203 83.0
e 180 145 31.0
e 180 56 14.0
e 180 116 2.0
e 180 67 51.0
e 180 23 100.0
e 180 225 8.0
e 180 45 32.0
e 180 68 56.0
e 180 296 21.0
e 180 241 82.0
e 182 284 43.0
e 182 210 94.0
e 182 107 26.0
e 182 10 98.0
e 182 151 44.0
e 182 119 71.0
e 182 273 45.0
e 182 112 50.0
e 182 179 41.0
e 182 51 40.0
e 182 318 73.0
e 182 139 27.0
e 182 197 4.0
e 182 255 16.0
e 185 267 3.0
e 185 262 8.0
e 190 139 85.0
e 191 22 25.0
e 191 208 36.0
e 191 97 73.0
e 191 59 46.0
e 191 223 69.0
e 191 220 83.0
e 191 117 54.0
e 191 104 85.0
e 191 126 63.0
e 191 211 13.0
e 191 300 50.0
e 191 309 81.0
e 191 120 73.0
e 191 45 66.0
e 191 285 57.0
e 194 0 49.0
e 194 120 38.0
e 194 63 97.0
e 194 108 33.0
e 194 168 72.0
e 194 132 51.0
e 194 222 41.0
e 194 175 28.0
e 194 10 10.0
e 194 243 72.0
e 194 12 47.0
e 194 51 23.0
e 194 311 4.0
e 194 162 34.0
e 194 121 18.0
e 197 102 37.0
e 197 78 4.0
e 197 224 13.0
e 197 202 26.0
e 197 94 45.0
e 197 87 10.0
e 197 21 31.0
e 197 52 69.0
e 197 17 51.0
e 197 89 17.0
e 197 308 36.0
e 197 10 31.0
e 197 234 37.0
e 197 252 75.0
e 197 310 1.0
e 197 178 12.0
e 200 205 86.0
e 200 201 45.0
e 200 295 67.0
e 200 143 66.0
e 200 244 48.0
e 200 158 88.0
e 200 204 19.0
e 200 245 15.0
e 200 61 95.0
e 200 302 100.0
e 200 89 4.0
e 200 15 5.0
e 200 247 88.0
e 200 54 82.0
e 200 32 25.0
e 200 21 84.0
e 211 308 23.0
e 211 311 24.0
e 212 224 59.0
e 212 105 47.0
e 212 68 75.0
e 212 296 74.0
e 212 172 39.0
e 212 39 71.0
e 212 205 60.0
e 212 47 98.0
e 212 87 3.0
e 212 155 26.0
e 212 247 16.0
e 212 271 84.0
e 212 64 67.0
e 212 33 2.0
e 213 253 64.0
e 213 220 41.0
e 213 156 30.0
e 213 236 3.0
e 213 276 47.0
e 213 17 65.0
e 213 254 8.0
e 213 257 64.0
e 213 18 84.0
e 213 22 27.0
e 213 34 38.0
e 213 76 72.0
e 213 108 14.0
e 214 163 2.0
e 214 226 1.0
e 215 142 33.0
e 215 250 27.0
e 215 211 51.0
e 215 101 81.0
e 215 66 74.0
e 215 214 98.0
e 215 194 31.0
e 215 147 7.0
e 215 201 50.0
e 215 140 47.0
e 215 184 19.0
e 215 187 98.0
e 215 280 87.0
e 216 167 5.0
e 216 16 43.0
e 216 244 99.0
e 216 142 6.0
e 216 12 91.0
e 216 218 37.0
e 216 233 12.0
e 217 269 26.0
e 217 291 74.0
e 217 298 43.0
e 217 302 100.0
e 217 238 17.0
e 217 18 54.0
e 217 23 15.0
e 217 288 79.0
e 217 102 21.0
e 217 141 38.0
e 217 247 62.0
e 217 194 92.0
e 217 294 25.0
e 217 95 100.0
e 217 49 86.0
e 221 143 1.0
e 221 36 12.0
e 221 310 44.0
e 221 223 84.0
e 221 156 7.0
e 221 238 43.0
e 221 259 57.0
e 221 261 6.0
e 221 81 84.0
e 221 45 67.0
e 221 144 37.0
e 221 147 87.0
e 221 59 25.0
e 221 131 22.0
e 223 277 15.0
e 223 233 1.0
e 227 207 1.0
e 231 272 90.0
e 238 109 83.0
e 238 280 72.0
e 238 82 93.0
e 238 211 48.0
e 238 76 38.0
e 238 144 41.0
e 238 93 1.0
e 238 40 31.0
e 238 61 11.0
e 238 120 24.0
e 238 162 15.0
e 238 178 97.0
e 239 112 3.0
e 240 238 73.0
e 240 28 78.0
e 240 245 8.0
e 240 296 53.0
e 240 18 97.0
e 240 169 45.0
e 240 55 50.0
e 240 144 34.0
e 240 205 24.0
e 240 49 67.0
e 240 35 58.0
e 240 57 47.0
e 240 286 37.0
e 240 36 61.0
e 241 62 37.0
e 241 194 25.0
e 241 289 22.0
e 241 291 71.0
e 241 284 1.0
e 241 250 89.0
e 241 213 44.0
e 241 178 94.0
e 241 159 18.0
e 241 33 77.0
e 241 214 1.0
e 242 55 55.0
e 243 121 11.0
e 243 204 9.0
e 243 188 20.0
e 244 93 83.0
e 244 294 57.0
e 244 239 24.0
e 244 109 87.0
e 244 304 12.0
e 244 27 17.0
e 244 300 61.0
e 244 238 46.0
e 244 28 82.0
e 244 83 54.0
e 244 311 35.0
e 245 288 46.0
e 245 175 95.0
e 245 299 29.0
e 245 58 93.0
e 245 27 65.0
e 245 147 99.0
e 245 131 55.0
e 245 312 19.0
e 245 181 33.0
e 245 122 27.0
e 245 298 77.0
e 245 296 57.0
e 246 221 42.0
e 247 188 77.0
e 247 179 78.0
e 247 122 79.0
e 247 35 82.0
e 247 312 6.0
e 247 58 63.0
e 247 206 57.0
e 247 303 24.0
e 247 113 59.0
e 247 36 35.0
e 247 295 66.0
e 247 136 98.0
e 247 211 72.0
e 247 180 51.0
e 250 35 23.0
e 250 122 22.0
e 250 150 11.0
e 251 252 80.0
e 251 58 43.0
e 251 128 33.0
e 251 215 66.0
e 251 281 49.0
e 251 261 75.0
e 251 78 98.0
e 251 60 35.0
e 251 212 34.0
e 251 134 99.0
e 251 312 32.0
e 251 37 4.0
e 251 62 37.0
e 252 216 65.0
e 252 146 56.0
e 252 212 88.0
e 252 262 16.0
e 252 37 16.0
e 252 38 32.0
e 252 278 8.0
e 252 79 87.0
e 252 113 32.0
e 252 49 11.0
e 252 110 72.0
e 252 195 10.0
e 253 116 32.0
e 253 312 28.0
e 253 74 33.0
e 253 263 15.0
e 253 282 49.0
e 253 83 6.0
e 253 242 34.0
e 253 313 94.0
e 253 60 100.0
e 253 62 87.0
e 253 80 94.0
e 253 149 93.0
e 253 198 10.0
e 254 247 52.0
e 254 315 39.0
e 254 89 9.0
e 254 39 2.0
e 254 227 17.0
e 254 272 58.0
e 254 159 40.0
e 254 259 69.0
e 254 66 46.0
e 254 207 16.0
e 254 123 83.0
e 254 155 42.0
e 254 312 19.0
e 254 190 67.0
e 254 69 84.0
e 256 70 37.0
e 257 297 4.0
e 257 70 39.0
e 257 71 97.0
e 257 72 15.0
e 257 167 54.0
e 257 73 29.0
e 257 207 28.0
e 257 268 95.0
e 257 174 70.0
e 257 179 90.0
e 257 113 53.0
e 257 296 51.0
e 257 74 96.0
e 257 76 33.0
e 259 208 44.0
e 259 131 45.0
e 259 71 2.0
e 259 283 85.0
e 259 84 32.0
e 259 297 87.0
e 259 132 14.0
e 259 312 8.0
e 259 149 30.0
e 259 290 31.0
e 259 77 54.0
e 259 85 76.0
e 259 124 77.0
e 260 268 1.0
e 261 196 53.0
e 261 150 39.0
e 261 241 12.0
e 261 295 74.0
e 261 158 40.0
e 261 91 10.0
e 261 77 80.0
e 261 146 45.0
e 261 80 33.0
e 263 104 16.0
e 263 116 2.0
e 263 182 29.0
e 265 304 13.0
e 265 180 46.0
e 265 121 5.0
e 265 149 46.0
e 265 84 60.0
e 265 85 55.0
e 265 238 92.0
e 265 86 35.0
e 265 152 41.0
e 265 150 77.0
e 265 123 74.0
e 265 92 22.0
e 265 223 80.0
e 265 272 26.0
e 270 245 27.0
e 270 246 72.0
e 270 226 1.0
e 270 135 13.0
e 270 130 82.0
e 270 223 69.0
e 270 176 78.0
e 270 155 56.0
e 270 154 60.0
e 270 128 9.0
e 270 84 62.0
e 270 230 70.0
e 270 151 3.0
e 272 86 18.0
e 272 91 3.0
e 272 124 12.0
e 272 215 51.0
e 272 137 18.0
e 272 312 27.0
e 272 92 12.0
e 272 96 85.0
e 272 123 47.0
e 272 195 70.0
e 273 233 12.0
e 273 303 32.0
e 273 230 36.0
e 273 151 18.0
e 273 265 81.0
e 273 167 72.0
e 275 164 82.0
e 275 92 78.0
e 275 180 13.0
e 275 182 15.0
e 275 257 6.0
e 275 314 30.0
e 275 184 5.0
e 275 298 11.0
e 275 96 39.0
e 275 255 96.0
e 275 174 74.0
e 275 253 59.0
e 275 124 81.0
e 275 212 1.0
e 276 152 11.0
e 278 96 16.0
e 278 125 14.0
e 278 153 24.0
e 278 126 45.0
e 278 127 45.0
e 278 129 10.0
e 278 133 88.0
e 278 130 13.0
e 278 135 37.0
e 278 1 5.0
e 278 136 34.0
e 278 137 89.0
e 278 221 76.0
e 282 127 88.0
e 282 263 14.0
e 282 196 75.0
e 282 125 49.0
e 282 221 50.0
e 282 130 96.0
e 282 153 17.0
e 282 278 3.0
e 282 285 22.0
e 282 286 85.0
e 282 227 98.0
e 282 239 2.0
e 282 169 15.0
e 282 1 4.0
e 284 135 7.0
e 284 127 22.0
e 284 2 23.0
e 284 133 87.0
e 284 315 36.0
e 284 136 51.0
e 284 313 40.0
e 284 192 63.0
e 284 243 16.0
e 284 173 63.0
e 284 272 32.0
e 284 156 63.0
e 285 197 90.0
e 285 133 9.0
e 285 190 4.0
e 285 298 77.0
e 285 157 91.0
e 285 269 31.0
e 285 198 58.0
e 285 159 20.0
e 285 313 34.0
e 285 189 76.0
e 285 162 4.0
e 285 163 89.0
e 285 302 96.0
e 286 272 80.0
e 286 184 68.0
e 286 289 71.0
e 286 157 86.0
e 286 163 8.0
e 286 164 22.0
e 286 166 97.0
e 286 175 10.0
e 286 169 47.0
e 286 242 99.0
e 286 283 96.0
e 286 213 31.0
e 286 171 29.0
e 286 260 22.0
e 291 282 60.0
e 291 2 86.0
e 291 233 12.0
e 291 173 38.0
e 291 248 10.0
e 291 171 81.0
e 291 157 67.0
e 291 289 65.0
e 291 313 70.0
e 291 192 99.0
e 291 164 80.0
e 291 245 87.0
e 291 166 14.0
e 298 283 42.0
e 298 166 34.0
e 298 171 44.0
e 299 192 69.0
e 299 172 73.0
e 299 173 17.0
e 299 174 29.0
e 299 176 89.0
e 299 318 70.0
e 299 313 82.0
e 299 181 32.0
e 299 240 83.0
e 299 281 76.0
e 299 182 55.0
e 299 183 79.0
e 299 231 52.0
e 299 185 82.0
e 299 241 93.0
e 300 239 55.0
e 300 181 20.0
e 300 183 37.0
e 300 185 2.0
e 300 317 33.0
e 300 314 46.0
e 300 186 64.0
e 300 302 56.0
e 300 226 22.0
e 300 187 64.0
e 300 189 99.0
e 300 270 6.0
e 300 190 9.0
e 301 183 53.0
e 301 185 32.0
e 301 289 99.0
e 301 186 44.0
e 301 187 9.0
e 301 189 67.0
e 301 291 43.0
e 301 191 50.0
e 301 196 33.0
e 301 197 22.0
e 301 198 88.0
e 301 199 54.0
e 301 282 35.0
e 301 200 86.0
e 313 191 25.0
e 313 286 66.0
e 313 242 14.0
e 313 197 17.0
e 313 199 15.0
e 313 200 47.0
e 313 201 26.0
e 313 202 71.0
e 313 213 70.0
e 313 214 61.0
e 313 215 21.0
e 313 227 67.0
e 319 191 5.0
e 319 216 31.0
e 319 199 8.0
